10J3M/DAT/10J3MUNX-12.dat
10 3
49.8582 7.061
27.798 5.2724
42.3709 6.5093
12.8277 3.5816
49.2613 7.0186
5.2679 2.2952
44.8912 6.7001
36.9924 6.0821
16.9057 4.1117
21.5946 4.647
53.279