10J3M/SOL/10J3MUNX-12.sol
solution status: optimal solution found
objective value:                     69.1937666666666
x#1#1                                               1 	(obj:0)
x#2#1                                               1 	(obj:0)
x#3#2                                               1 	(obj:0)
x#4#2                               0.401538700927606 	(obj:0)
x#4#3                               0.598461299072394 	(obj:0)
x#5#1                                               1 	(obj:0)
x#6#1                                               1 	(obj:0)
x#7#3                                               1 	(obj:0)
x#8#1                                               1 	(obj:0)
x#9#2                                               1 	(obj:0)
x#10#1                              0.779072254858402 	(obj:0)
x#10#2                              0.220927745141598 	(obj:0)
z                                    69.1937666666666 	(obj:1)
